# Objective value = 1.9855693951580158e+03
x[0] 1
x[1] 0
x[2] 1
x[3] 1
x[4] 0
x[5] 1
x[6] 1
x[7] 0
x[8] 1
x[9] 1
x[10] 1
x[11] 0
x[12] 0
x[13] 0
x[14] 1
x[15] 1
x[16] 0
x[17] 0
x[18] 1
x[19] 0
x[20] 0
x[21] 0
x[22] 0
x[23] 1
x[24] 1
x[25] 1
x[26] 0
x[27] 1
x[28] 1
x[29] 0
x[30] 1
x[31] 1
x[32] 0
x[33] 1
x[34] 1
x[35] 1
x[36] 0
x[37] 0
x[38] 1
x[39] 0
x[40] 0
x[41] 1
x[42] 1
x[43] 1
x[44] 0
x[45] 1
x[46] 1
x[47] 0
x[48] 1
x[49] 0
x[50] 1
x[51] 0
x[52] 1
x[53] 1
x[54] 1
x[55] 1
x[56] 0
x[57] 0
x[58] 0
x[59] 0
x[60] 1
x[61] 0
x[62] 1
x[63] 0
x[64] 0
x[65] 0
x[66] 1
x[67] 0
x[68] 0
x[69] 0
x[70] 1
x[71] 0
x[72] 0
x[73] 1
x[74] 0
x[75] 0
x[76] 1
x[77] 1
x[78] 1
x[79] 1
x[80] 0
x[81] 1
x[82] 1
x[83] 0
x[84] 0
x[85] 0
x[86] 0
x[87] 0
x[88] 0
x[89] 0
x[90] 1
x[91] 0
x[92] 1
x[93] 1
x[94] 1
x[95] 0
x[96] 0
x[97] 0
x[98] 1
x[99] 1
x[100] 0
x[101] 1
x[102] 1
x[103] 1
x[104] 1
x[105] 1
x[106] 0
x[107] 1
x[108] 0
x[109] 0
x[110] 0
x[111] 0
x[112] 0
x[113] 0
x[114] 1
x[115] 1
x[116] 1
x[117] 0
x[118] 0
x[119] 0
x[120] 1
x[121] 1
x[122] 0
x[123] 1
x[124] 1
x[125] 1
x[126] 1
x[127] 1
x[128] 1
x[129] 0
x[130] 0
x[131] 1
x[132] 1
x[133] 1
x[134] 1
x[135] 0
x[136] 0
x[137] 1
x[138] 1
x[139] 1
x[140] 0
x[141] 1
x[142] 0
x[143] 0
x[144] 1
x[145] 0
x[146] 1
x[147] 1
x[148] 0
x[149] 0
x[150] 0
x[151] 1
x[152] 1
x[153] 1
x[154] 1
x[155] 0
x[156] 0
x[157] 1
x[158] 1
x[159] 1
x[160] 0
x[161] 0
x[162] 1
x[163] 0
x[164] 0
x[165] 0
x[166] 1
x[167] 1
x[168] 0
x[169] 1
x[170] 1
x[171] 0
x[172] 1
x[173] 1
x[174] 1
x[175] 1
x[176] 1
x[177] 1
x[178] 1
x[179] 1
x[180] 0
x[181] 0
x[182] 0
x[183] 0
x[184] 0
x[185] 1
x[186] 1
x[187] 1
x[188] 1
x[189] 0
x[190] 0
x[191] 0
x[192] 1
x[193] 1
x[194] 1
x[195] 0
x[196] 1
x[197] 0
x[198] 1
x[199] 0
x[200] 0
x[201] 1
x[202] 0
x[203] 0
x[204] 1
x[205] 1
x[206] 1
x[207] 0
x[208] 0
x[209] 0
x[210] 1
x[211] 0
x[212] 1
x[213] 0
x[214] 1
x[215] 1
x[216] 1
x[217] 0
x[218] 1
x[219] 1
x[220] 0
x[221] 1
x[222] 1
x[223] 0
x[224] 0
x[225] 1
x[226] 1
x[227] 0
x[228] 0
x[229] 0
x[230] 1
x[231] 1
x[232] 0
x[233] 1
x[234] 1
x[235] 0
x[236] 1
x[237] 0
x[238] 1
x[239] 0
x[240] 1
x[241] 0
x[242] 0
x[243] 0
x[244] 0
x[245] 0
x[246] 0
x[247] 0
x[248] 0
x[249] 1
x[250] 0
x[251] 1
x[252] 1
x[253] 1
x[254] 1
x[255] 1
x[256] 1
x[257] 1
x[258] 0
x[259] 1
x[260] 0
x[261] 1
x[262] 0
x[263] 1
x[264] 1
x[265] 1
x[266] 0
x[267] 0
x[268] 0
x[269] 1
x[270] 1
x[271] 0
x[272] 1
x[273] 1
x[274] 0
x[275] 1
x[276] 1
x[277] 1
x[278] 0
x[279] 0
x[280] 0
x[281] 0
x[282] 0
x[283] 1
x[284] 1
x[285] 1
x[286] 0
x[287] 0
x[288] 0
x[289] 1
x[290] 0
x[291] 1
x[292] 1
x[293] 1
x[294] 0
x[295] 0
x[296] 1
x[297] 1
x[298] 1
x[299] 1
x[300] 1
x[301] 0
x[302] 1
x[303] 1
x[304] 0
x[305] 1
x[306] 1
x[307] 0
x[308] 1
x[309] 0
x[310] 0
x[311] 0
x[312] 0
x[313] 1
x[314] 1
x[315] 0
x[316] 0
x[317] 1
x[318] 1
x[319] 1
x[320] 1
x[321] 0
x[322] 0
x[323] 1
x[324] 0
x[325] 1
x[326] 0
x[327] 1
x[328] 1
x[329] 0
x[330] 1
x[331] 0
x[332] 1
x[333] 0
x[334] 1
x[335] 1
x[336] 1
x[337] 0
x[338] 1
x[339] 1
x[340] 1
x[341] 1
x[342] 0
x[343] 0
x[344] 1
x[345] 1
x[346] 0
x[347] 1
x[348] 1
x[349] 1
x[350] 0
x[351] 0
x[352] 1
x[353] 1
x[354] 1
x[355] 1
x[356] 0
x[357] 1
x[358] 0
x[359] 1
x[360] 1
x[361] 0
x[362] 1
x[363] 0
x[364] 1
x[365] 1
x[366] 0
x[367] 0
x[368] 0
x[369] 0
x[370] 0
x[371] 0
x[372] 0
x[373] 1
x[374] 1
x[375] 1
x[376] 0
x[377] 0
x[378] 1
x[379] 0
x[380] 0
x[381] 1
x[382] 1
x[383] 0
x[384] 1
x[385] 0
x[386] 1
x[387] 1
x[388] 0
x[389] 0
x[390] 1
x[391] 1
x[392] 1
x[393] 1
x[394] 0
x[395] 1
x[396] 0
x[397] 1
x[398] 1
x[399] 0
x[400] 1
x[401] 1
x[402] 0
x[403] 0
x[404] 0
x[405] 1
x[406] 1
x[407] 0
x[408] 0
x[409] 1
x[410] 1
x[411] 0
x[412] 0
x[413] 0
x[414] 0
x[415] 1
x[416] 0
x[417] 0
x[418] 0
x[419] 1
x[420] 0
x[421] 1
x[422] 0
x[423] 0
x[424] 1
x[425] 1
x[426] 0
x[427] 0
x[428] 1
x[429] 0
x[430] 1
x[431] 1
x[432] 1
x[433] 0
x[434] 0
x[435] 0
x[436] 1
x[437] 1
x[438] 1
x[439] 1
x[440] 1
x[441] 0
x[442] 1
x[443] 1
x[444] 1
x[445] 1
x[446] 1
x[447] 0
x[448] 0
x[449] 0
x[450] 0
x[451] 1
x[452] 1
x[453] 0
x[454] 0
x[455] 1
x[456] 1
x[457] 1
x[458] 0
x[459] 0
x[460] 1
x[461] 1
x[462] 1
x[463] 1
x[464] 1
x[465] 0
x[466] 1
x[467] 0
x[468] 1
x[469] 1
x[470] 0
x[471] 0
x[472] 1
x[473] 0
x[474] 0
x[475] 1
x[476] 1
x[477] 0
x[478] 1
x[479] 0
x[480] 1
x[481] 1
x[482] 1
x[483] 1
x[484] 0
x[485] 1
x[486] 1
x[487] 1
x[488] 0
x[489] 1
x[490] 1
x[491] 0
x[492] 0
x[493] 0
x[494] 0
x[495] 1
x[496] 0
x[497] 1
x[498] 0
x[499] 1
x[500] 0
x[501] 1
x[502] 0
x[503] 1
x[504] 0
x[505] 1
x[506] 1
x[507] 1
x[508] 0
x[509] 0
x[510] 1
x[511] 0
x[512] 1
x[513] 1
x[514] 0
x[515] 1
x[516] 1
x[517] 0
x[518] 1
x[519] 1
x[520] 0
x[521] 1
x[522] 1
x[523] 1
x[524] 1
x[525] 0
x[526] 1
x[527] 0
x[528] 1
x[529] 1
x[530] 1
x[531] 0
x[532] 1
x[533] 1
x[534] 0
x[535] 1
x[536] 1
x[537] 1
x[538] 0
x[539] 0
x[540] 0
x[541] 1
x[542] 1
x[543] 1
x[544] 1
x[545] 1
x[546] 0
x[547] 0
x[548] 1
x[549] 1
x[550] 1
x[551] 1
x[552] 1
x[553] 1
x[554] 1
x[555] 0
x[556] 1
x[557] 1
x[558] 0
x[559] 1
x[560] 0
x[561] 1
x[562] 0
x[563] 1
x[564] 1
x[565] 0
x[566] 1
x[567] 0
x[568] 0
x[569] 1
x[570] 1
x[571] 0
x[572] 0
x[573] 1
x[574] 0
x[575] 1
x[576] 1
x[577] 1
x[578] 0
x[579] 0
x[580] 1
x[581] 0
x[582] 1
x[583] 1
x[584] 1
x[585] 0
x[586] 1
x[587] 0
x[588] 1
x[589] 0
x[590] 1
x[591] 1
x[592] 1
x[593] 1
x[594] 1
x[595] 0
x[596] 0
x[597] 0
x[598] 1
x[599] 0
x[600] 0
x[601] 0
x[602] 0
x[603] 1
x[604] 0
x[605] 1
x[606] 0
x[607] 1
x[608] 1
x[609] 1
x[610] 1
x[611] 1
x[612] 1
x[613] 0
x[614] 0
x[615] 0
x[616] 0
x[617] 0
x[618] 1
x[619] 1
x[620] 1
x[621] 0
x[622] 0
x[623] 1
x[624] 0
x[625] 0
x[626] 1
x[627] 1
x[628] 1
x[629] 0
x[630] 0
x[631] 1
x[632] 1
x[633] 1
x[634] 0
x[635] 1
x[636] 0
x[637] 0
x[638] 0
x[639] 1
x[640] 0
x[641] 1
x[642] 1
x[643] 1
x[644] 1
x[645] 0
x[646] 0
x[647] 1
x[648] 1
x[649] 1
x[650] 0
x[651] 0
x[652] 0
x[653] 1
x[654] 0
x[655] 0
x[656] 0
x[657] 0
x[658] 1
x[659] 0
x[660] 0
x[661] 1
x[662] 0
x[663] 0
x[664] 1
x[665] 1
x[666] 1
x[667] 0
x[668] 0
x[669] 0
x[670] 0
x[671] 1
x[672] 1
x[673] 1
x[674] 0
x[675] 1
x[676] 1
x[677] 1
x[678] 1
x[679] 0
x[680] 1
x[681] 0
x[682] 1
x[683] 0
x[684] 0
x[685] 0
x[686] 1
x[687] 0
x[688] 0
x[689] 0
x[690] 1
x[691] 1
x[692] 0
x[693] 1
x[694] 0
x[695] 1
x[696] 0
x[697] 0
x[698] 1
x[699] 1
x[700] 0
x[701] 1
x[702] 1
x[703] 1
x[704] 0
x[705] 1
x[706] 0
x[707] 1
x[708] 1
x[709] 1
x[710] 1
x[711] 1
x[712] 1
x[713] 1
x[714] 1
x[715] 0
x[716] 0
x[717] 1
x[718] 1
x[719] 1
x[720] 1
x[721] 1
x[722] 0
x[723] 0
x[724] 1
x[725] 1
x[726] 0
x[727] 1
x[728] 0
x[729] 1
x[730] 0
x[731] 1
x[732] 0
x[733] 0
x[734] 1
x[735] 1
x[736] 0
x[737] 0
x[738] 1
x[739] 1
x[740] 1
x[741] 0
x[742] 1
x[743] 1
x[744] 0
x[745] 1
x[746] 1
x[747] 0
x[748] 0
x[749] 1
x[750] 0
x[751] 1
x[752] 1
x[753] 1
x[754] 1
x[755] 1
x[756] 1
x[757] 1
x[758] 0
x[759] 1
x[760] 1
x[761] 1
x[762] 1
x[763] 0
x[764] 1
x[765] 1
x[766] 1
x[767] 1
x[768] 0
x[769] 0
x[770] 1
x[771] 1
x[772] 0
x[773] 1
x[774] 1
x[775] 1
x[776] 1
x[777] 1
x[778] 1
x[779] 0
x[780] 0
x[781] 1
x[782] 0
x[783] 1
x[784] 0
x[785] 1
x[786] 0
x[787] 0
x[788] 1
x[789] 1
x[790] 1
x[791] 1
x[792] 0
x[793] 1
x[794] 1
x[795] 1
x[796] 0
x[797] 0
x[798] 1
x[799] 0
x[800] 1
x[801] 0
x[802] 0
x[803] 1
x[804] 1
x[805] 1
x[806] 0
x[807] 0
x[808] 1
x[809] 1
x[810] 0
x[811] 0
x[812] 1
x[813] 0
x[814] 0
x[815] 1
x[816] 0
x[817] 1
x[818] 1
x[819] 1
x[820] 1
x[821] 1
x[822] 0
x[823] 0
x[824] 0
x[825] 1
x[826] 0
x[827] 1
x[828] 1
x[829] 1
x[830] 1
x[831] 1
x[832] 0
x[833] 1
x[834] 0
x[835] 0
x[836] 1
x[837] 1
x[838] 1
x[839] 0
x[840] 1
x[841] 1
x[842] 1
x[843] 1
x[844] 0
x[845] 1
x[846] 0
x[847] 0
x[848] 1
x[849] 1
x[850] 0
x[851] 1
x[852] 1
x[853] 1
x[854] 0
x[855] 1
x[856] 0
x[857] 1
x[858] 0
x[859] 0
x[860] 1
x[861] 1
x[862] 0
x[863] 1
x[864] 0
x[865] 1
x[866] 1
x[867] 1
x[868] 1
x[869] 1
x[870] 1
x[871] 0
x[872] 0
x[873] 0
x[874] 1
x[875] 0
x[876] 1
x[877] 1
x[878] 1
x[879] 1
x[880] 1
x[881] 1
x[882] 0
x[883] 0
x[884] 1
x[885] 1
x[886] 0
x[887] 1
x[888] 0
x[889] 1
x[890] 1
x[891] 1
x[892] 0
x[893] 1
x[894] 1
x[895] 0
x[896] 1
x[897] 1
x[898] 1
x[899] 0
x[900] 1
x[901] 0
x[902] 1
x[903] 0
x[904] 0
x[905] 1
x[906] 1
x[907] 1
x[908] 0
x[909] 1
x[910] 0
x[911] 1
x[912] 0
x[913] 1
x[914] 1
x[915] 0
x[916] 1
x[917] 1
x[918] 1
x[919] 1
x[920] 1
x[921] 0
x[922] 0
x[923] 1
x[924] 0
x[925] 1
x[926] 1
x[927] 0
x[928] 1
x[929] 1
x[930] 0
x[931] 1
x[932] 1
x[933] 0
x[934] 1
x[935] 1
x[936] 1
x[937] 0
x[938] 1
x[939] 1
x[940] 0
x[941] 0
x[942] 1
x[943] 0
x[944] 0
x[945] 0
x[946] 1
x[947] 1
x[948] 1
x[949] 0
x[950] 1
x[951] 0
x[952] 0
x[953] 1
x[954] 0
x[955] 0
x[956] 0
x[957] 1
x[958] 0
x[959] 1
x[960] 0
x[961] 1
x[962] 0
x[963] 0
x[964] 0
x[965] 0
x[966] 1
x[967] 1
x[968] 0
x[969] 0
x[970] 1
x[971] 1
x[972] 1
x[973] 1
x[974] 0
x[975] 1
x[976] 0
x[977] 1
x[978] 0
x[979] 1
x[980] 0
x[981] 1
x[982] 1
x[983] 1
x[984] 1
x[985] 0
x[986] 1
x[987] 1
x[988] 0
x[989] 0
x[990] 0
x[991] 1
x[992] 0
x[993] 0
x[994] 0
x[995] 0
x[996] 0
x[997] 1
x[998] 0
x[999] 1
